c This is an instance of the exact track of PACE 2020 Challenge, see https://pacechallenge.org/2020/ 
c TYPE: infrastracture 
c ORIGIN: Open street maps 
c DESCRIPTION: Czerniewice (Poland): a road network downloaded from open street maps using osmnx Python package 
p tdp 120 157
1 22
1 25
1 32
1 102
2 113
2 116
2 117
3 71
3 49
3 12
3 74
4 5
4 11
4 18
5 9
6 120
6 7
6 76
7 114
8 20
8 108
9 17
9 76
10 17
10 69
10 120
11 14
11 12
12 13
13 14
13 69
13 72
14 15
16 17
16 69
16 72
18 19
21 24
21 30
21 71
22 23
22 66
23 25
23 64
24 54
24 55
25 26
26 27
26 32
27 33
27 29
28 49
28 51
28 99
30 103
30 102
31 80
31 35
31 55
32 63
32 33
33 82
34 36
34 99
34 92
35 37
35 103
35 60
36 68
36 44
37 59
37 45
38 40
38 48
38 47
39 77
39 68
40 42
40 50
40 47
41 83
41 92
41 46
42 44
43 83
43 56
43 67
45 61
45 104
45 59
46 62
46 79
47 49
48 50
48 74
50 107
51 54
51 56
52 58
53 80
53 56
53 67
54 57
55 57
57 80
58 62
58 105
59 78
62 78
64 65
64 66
66 116
67 79
70 71
72 73
74 75
75 106
75 107
78 79
81 82
82 104
83 84
84 85
84 93
86 87
87 88
87 89
87 90
88 96
88 90
90 92
91 95
93 94
93 99
94 98
94 95
95 96
96 97
100 101
101 103
101 102
108 112
108 109
109 110
110 111
110 119
111 118
111 115
112 113
112 115
113 115
114 119
114 118
116 117
117 118
117 120
118 119
